NAME : amz0525.93059_81059.tour
COMMENT : Cost = 93059_81059
COMMENT : Found by LKH-AMZ [Keld Helsgaun] Sun May 11 12:33:18 2025
COMMENT : TW viol.: 0 #: 0
TYPE : TOUR
DIMENSION : 138
TOUR_SECTION
67
79
78
26
92
87
24
6
7
2
116
31
37
3
98
11
111
105
135
45
83
29
129
28
120
23
131
56
138
41
30
89
109
70
121
108
44
90
123
91
57
5
49
132
93
55
126
107
61
128
63
68
127
40
84
80
16
51
75
18
102
134
96
76
33
14
35
130
1
74
95
64
43
117
118
104
8
20
12
122
114
9
66
94
21
50
25
115
4
86
59
15
47
36
101
99
58
27
32
125
112
48
97
69
124
10
103
119
38
34
13
137
88
133
46
17
54
100
42
62
52
60
106
71
81
136
22
19
85
39
73
53
77
65
82
72
110
113
-1
EOF
